399
750
599	2
597	3
596	2
595	1
594	1
593	3
592	3
591	3
589	2
588	3
587	3
586	1
585	3
584	2
583	4
582	1
581	3
580	1
579	1
577	2
573	3
572	1
571	1
570	2
569	3
567	1
564	1
562	1
561	2
560	2
559	1
558	1
556	1
555	3
553	1
552	2
550	2
549	2
548	2
547	1
545	1
544	2
543	3
542	1
541	1
540	1
539	3
538	1
537	1
536	2
535	2
534	1
533	1
532	2
531	2
530	1
526	1
522	1
521	1
520	2
519	1
518	3
515	2
514	2
513	2
512	1
511	2
510	3
509	2
508	1
507	2
506	2
505	2
504	2
503	1
502	1
501	2
500	1
499	2
498	1
497	2
495	2
494	4
492	2
491	1
490	1
489	3
488	5
487	1
486	3
485	2
484	1
483	3
482	2
481	1
480	1
479	2
478	3
477	3
476	1
475	3
474	2
471	2
470	5
469	2
467	2
466	3
465	4
464	1
463	3
462	1
461	1
458	1
457	2
455	2
454	1
453	4
452	4
451	3
450	3
449	1
448	3
445	4
444	1
441	1
440	1
439	1
438	1
437	1
436	2
435	3
434	2
433	4
432	1
429	3
428	1
427	1
426	3
425	3
424	2
423	2
422	2
421	2
418	2
417	1
416	1
415	2
413	3
412	3
411	3
410	1
409	1
407	3
406	3
405	1
404	2
400	1
399	4
398	1
394	2
393	1
392	2
391	2
390	1
386	1
385	1
384	2
383	2
382	1
380	1
378	3
377	2
376	3
375	1
373	2
372	5
371	1
370	5
369	2
368	3
367	2
366	3
365	1
363	2
360	3
359	3
357	2
356	3
354	2
353	2
352	2
351	3
350	2
349	1
347	2
346	1
345	1
344	2
343	3
342	1
340	2
337	1
335	2
334	1
332	1
331	3
330	3
329	3
327	1
326	1
323	1
322	1
321	1
319	1
318	4
317	1
316	4
315	3
313	5
312	2
311	2
310	2
309	3
308	2
306	3
305	4
303	2
302	1
301	2
300	2
299	1
298	1
296	1
295	3
294	2
293	1
292	1
291	1
290	1
288	1
285	3
283	2
281	1
280	4
277	1
276	1
275	1
274	2
273	5
272	1
271	1
269	1
268	1
267	2
265	1
263	1
262	3
261	1
260	1
259	3
258	2
256	1
255	1
254	1
250	2
249	1
248	1
247	2
244	1
243	1
241	1
240	3
239	2
238	1
237	1
236	1
235	2
234	1
233	2
232	1
231	2
229	1
228	2
227	4
226	1
225	2
223	3
221	4
220	3
219	3
217	2
216	1
215	1
214	2
213	4
210	2
206	1
205	1
204	2
203	2
202	1
201	1
199	2
198	2
197	3
196	2
195	1
193	1
192	1
189	1
187	1
186	3
185	2
184	1
183	1
182	2
181	2
180	1
179	4
178	3
177	2
176	5
175	2
173	1
172	1
171	3
170	1
168	2
167	2
166	1
163	2
162	1
161	2
160	5
159	1
158	2
156	4
155	1
153	1
151	3
150	2
147	1
146	1
145	2
144	1
143	1
141	1
140	1
138	1
137	1
136	1
135	1
134	1
133	3
132	2
131	3
130	2
129	1
127	1
125	2
124	1
123	1
122	1
121	1
119	1
118	1
116	1
115	1
114	1
113	3
111	3
110	1
109	2
107	1
106	2
104	1
103	2
102	3
101	1
100	1
98	3
97	1
96	2
95	3
92	1
91	1
90	1
89	1
87	1
86	1
85	1
84	2
83	1
82	5
81	3
80	4
79	3
77	1
75	1
